certificates/rado_a14_c4_N175.cnf
c Rad2 upper bound instance: x1 + 14*x2 - x3 = 4, interval [1,175]
p cnf 175 2112
1 11 0
-1 -11 0
1 2 25 0
-1 -2 -25 0
1 3 39 0
-1 -3 -39 0
1 4 53 0
-1 -4 -53 0
1 5 67 0
-1 -5 -67 0
1 6 81 0
-1 -6 -81 0
1 7 95 0
-1 -7 -95 0
1 8 109 0
-1 -8 -109 0
1 9 123 0
-1 -9 -123 0
1 10 137 0
-1 -10 -137 0
1 11 151 0
-1 -11 -151 0
1 12 165 0
-1 -12 -165 0
1 2 12 0
-1 -2 -12 0
2 26 0
-2 -26 0
2 3 40 0
-2 -3 -40 0
2 4 54 0
-2 -4 -54 0
2 5 68 0
-2 -5 -68 0
2 6 82 0
-2 -6 -82 0
2 7 96 0
-2 -7 -96 0
2 8 110 0
-2 -8 -110 0
2 9 124 0
-2 -9 -124 0
2 10 138 0
-2 -10 -138 0
2 11 152 0
-2 -11 -152 0
2 12 166 0
-2 -12 -166 0
1 3 13 0
-1 -3 -13 0
2 3 27 0
-2 -3 -27 0
3 41 0
-3 -41 0
3 4 55 0
-3 -4 -55 0
3 5 69 0
-3 -5 -69 0
3 6 83 0
-3 -6 -83 0
3 7 97 0
-3 -7 -97 0
3 8 111 0
-3 -8 -111 0
3 9 125 0
-3 -9 -125 0
3 10 139 0
-3 -10 -139 0
3 11 153 0
-3 -11 -153 0
3 12 167 0
-3 -12 -167 0
1 4 14 0
-1 -4 -14 0
2 4 28 0
-2 -4 -28 0
3 4 42 0
-3 -4 -42 0
4 56 0
-4 -56 0
4 5 70 0
-4 -5 -70 0
4 6 84 0
-4 -6 -84 0
4 7 98 0
-4 -7 -98 0
4 8 112 0
-4 -8 -112 0
4 9 126 0
-4 -9 -126 0
4 10 140 0
-4 -10 -140 0
4 11 154 0
-4 -11 -154 0
4 12 168 0
-4 -12 -168 0
1 5 15 0
-1 -5 -15 0
2 5 29 0
-2 -5 -29 0
3 5 43 0
-3 -5 -43 0
4 5 57 0
-4 -5 -57 0
5 71 0
-5 -71 0
5 6 85 0
-5 -6 -85 0
5 7 99 0
-5 -7 -99 0
5 8 113 0
-5 -8 -113 0
5 9 127 0
-5 -9 -127 0
5 10 141 0
-5 -10 -141 0
5 11 155 0
-5 -11 -155 0
5 12 169 0
-5 -12 -169 0
1 6 16 0
-1 -6 -16 0
2 6 30 0
-2 -6 -30 0
3 6 44 0
-3 -6 -44 0
4 6 58 0
-4 -6 -58 0
5 6 72 0
-5 -6 -72 0
6 86 0
-6 -86 0
6 7 100 0
-6 -7 -100 0
6 8 114 0
-6 -8 -114 0
6 9 128 0
-6 -9 -128 0
6 10 142 0
-6 -10 -142 0
6 11 156 0
-6 -11 -156 0
6 12 170 0
-6 -12 -170 0
1 7 17 0
-1 -7 -17 0
2 7 31 0
-2 -7 -31 0
3 7 45 0
-3 -7 -45 0
4 7 59 0
-4 -7 -59 0
5 7 73 0
-5 -7 -73 0
6 7 87 0
-6 -7 -87 0
7 101 0
-7 -101 0
7 8 115 0
-7 -8 -115 0
7 9 129 0
-7 -9 -129 0
7 10 143 0
-7 -10 -143 0
7 11 157 0
-7 -11 -157 0
7 12 171 0
-7 -12 -171 0
1 8 18 0
-1 -8 -18 0
2 8 32 0
-2 -8 -32 0
3 8 46 0
-3 -8 -46 0
4 8 60 0
-4 -8 -60 0
5 8 74 0
-5 -8 -74 0
6 8 88 0
-6 -8 -88 0
7 8 102 0
-7 -8 -102 0
8 116 0
-8 -116 0
8 9 130 0
-8 -9 -130 0
8 10 144 0
-8 -10 -144 0
8 11 158 0
-8 -11 -158 0
8 12 172 0
-8 -12 -172 0
1 9 19 0
-1 -9 -19 0
2 9 33 0
-2 -9 -33 0
3 9 47 0
-3 -9 -47 0
4 9 61 0
-4 -9 -61 0
5 9 75 0
-5 -9 -75 0
6 9 89 0
-6 -9 -89 0
7 9 103 0
-7 -9 -103 0
8 9 117 0
-8 -9 -117 0
9 131 0
-9 -131 0
9 10 145 0
-9 -10 -145 0
9 11 159 0
-9 -11 -159 0
9 12 173 0
-9 -12 -173 0
1 10 20 0
-1 -10 -20 0
2 10 34 0
-2 -10 -34 0
3 10 48 0
-3 -10 -48 0
4 10 62 0
-4 -10 -62 0
5 10 76 0
-5 -10 -76 0
6 10 90 0
-6 -10 -90 0
7 10 104 0
-7 -10 -104 0
8 10 118 0
-8 -10 -118 0
9 10 132 0
-9 -10 -132 0
10 146 0
-10 -146 0
10 11 160 0
-10 -11 -160 0
10 12 174 0
-10 -12 -174 0
1 11 21 0
-1 -11 -21 0
2 11 35 0
-2 -11 -35 0
3 11 49 0
-3 -11 -49 0
4 11 63 0
-4 -11 -63 0
5 11 77 0
-5 -11 -77 0
6 11 91 0
-6 -11 -91 0
7 11 105 0
-7 -11 -105 0
8 11 119 0
-8 -11 -119 0
9 11 133 0
-9 -11 -133 0
10 11 147 0
-10 -11 -147 0
11 161 0
-11 -161 0
11 12 175 0
-11 -12 -175 0
1 12 22 0
-1 -12 -22 0
2 12 36 0
-2 -12 -36 0
3 12 50 0
-3 -12 -50 0
4 12 64 0
-4 -12 -64 0
5 12 78 0
-5 -12 -78 0
6 12 92 0
-6 -12 -92 0
7 12 106 0
-7 -12 -106 0
8 12 120 0
-8 -12 -120 0
9 12 134 0
-9 -12 -134 0
10 12 148 0
-10 -12 -148 0
11 12 162 0
-11 -12 -162 0
1 13 23 0
-1 -13 -23 0
2 13 37 0
-2 -13 -37 0
3 13 51 0
-3 -13 -51 0
4 13 65 0
-4 -13 -65 0
5 13 79 0
-5 -13 -79 0
6 13 93 0
-6 -13 -93 0
7 13 107 0
-7 -13 -107 0
8 13 121 0
-8 -13 -121 0
9 13 135 0
-9 -13 -135 0
10 13 149 0
-10 -13 -149 0
11 13 163 0
-11 -13 -163 0
1 14 24 0
-1 -14 -24 0
2 14 38 0
-2 -14 -38 0
3 14 52 0
-3 -14 -52 0
4 14 66 0
-4 -14 -66 0
5 14 80 0
-5 -14 -80 0
6 14 94 0
-6 -14 -94 0
7 14 108 0
-7 -14 -108 0
8 14 122 0
-8 -14 -122 0
9 14 136 0
-9 -14 -136 0
10 14 150 0
-10 -14 -150 0
11 14 164 0
-11 -14 -164 0
1 15 25 0
-1 -15 -25 0
2 15 39 0
-2 -15 -39 0
3 15 53 0
-3 -15 -53 0
4 15 67 0
-4 -15 -67 0
5 15 81 0
-5 -15 -81 0
6 15 95 0
-6 -15 -95 0
7 15 109 0
-7 -15 -109 0
8 15 123 0
-8 -15 -123 0
9 15 137 0
-9 -15 -137 0
10 15 151 0
-10 -15 -151 0
11 15 165 0
-11 -15 -165 0
1 16 26 0
-1 -16 -26 0
2 16 40 0
-2 -16 -40 0
3 16 54 0
-3 -16 -54 0
4 16 68 0
-4 -16 -68 0
5 16 82 0
-5 -16 -82 0
6 16 96 0
-6 -16 -96 0
7 16 110 0
-7 -16 -110 0
8 16 124 0
-8 -16 -124 0
9 16 138 0
-9 -16 -138 0
10 16 152 0
-10 -16 -152 0
11 16 166 0
-11 -16 -166 0
1 17 27 0
-1 -17 -27 0
2 17 41 0
-2 -17 -41 0
3 17 55 0
-3 -17 -55 0
4 17 69 0
-4 -17 -69 0
5 17 83 0
-5 -17 -83 0
6 17 97 0
-6 -17 -97 0
7 17 111 0
-7 -17 -111 0
8 17 125 0
-8 -17 -125 0
9 17 139 0
-9 -17 -139 0
10 17 153 0
-10 -17 -153 0
11 17 167 0
-11 -17 -167 0
1 18 28 0
-1 -18 -28 0
2 18 42 0
-2 -18 -42 0
3 18 56 0
-3 -18 -56 0
4 18 70 0
-4 -18 -70 0
5 18 84 0
-5 -18 -84 0
6 18 98 0
-6 -18 -98 0
7 18 112 0
-7 -18 -112 0
8 18 126 0
-8 -18 -126 0
9 18 140 0
-9 -18 -140 0
10 18 154 0
-10 -18 -154 0
11 18 168 0
-11 -18 -168 0
1 19 29 0
-1 -19 -29 0
2 19 43 0
-2 -19 -43 0
3 19 57 0
-3 -19 -57 0
4 19 71 0
-4 -19 -71 0
5 19 85 0
-5 -19 -85 0
6 19 99 0
-6 -19 -99 0
7 19 113 0
-7 -19 -113 0
8 19 127 0
-8 -19 -127 0
9 19 141 0
-9 -19 -141 0
10 19 155 0
-10 -19 -155 0
11 19 169 0
-11 -19 -169 0
1 20 30 0
-1 -20 -30 0
2 20 44 0
-2 -20 -44 0
3 20 58 0
-3 -20 -58 0
4 20 72 0
-4 -20 -72 0
5 20 86 0
-5 -20 -86 0
6 20 100 0
-6 -20 -100 0
7 20 114 0
-7 -20 -114 0
8 20 128 0
-8 -20 -128 0
9 20 142 0
-9 -20 -142 0
10 20 156 0
-10 -20 -156 0
11 20 170 0
-11 -20 -170 0
1 21 31 0
-1 -21 -31 0
2 21 45 0
-2 -21 -45 0
3 21 59 0
-3 -21 -59 0
4 21 73 0
-4 -21 -73 0
5 21 87 0
-5 -21 -87 0
6 21 101 0
-6 -21 -101 0
7 21 115 0
-7 -21 -115 0
8 21 129 0
-8 -21 -129 0
9 21 143 0
-9 -21 -143 0
10 21 157 0
-10 -21 -157 0
11 21 171 0
-11 -21 -171 0
1 22 32 0
-1 -22 -32 0
2 22 46 0
-2 -22 -46 0
3 22 60 0
-3 -22 -60 0
4 22 74 0
-4 -22 -74 0
5 22 88 0
-5 -22 -88 0
6 22 102 0
-6 -22 -102 0
7 22 116 0
-7 -22 -116 0
8 22 130 0
-8 -22 -130 0
9 22 144 0
-9 -22 -144 0
10 22 158 0
-10 -22 -158 0
11 22 172 0
-11 -22 -172 0
1 23 33 0
-1 -23 -33 0
2 23 47 0
-2 -23 -47 0
3 23 61 0
-3 -23 -61 0
4 23 75 0
-4 -23 -75 0
5 23 89 0
-5 -23 -89 0
6 23 103 0
-6 -23 -103 0
7 23 117 0
-7 -23 -117 0
8 23 131 0
-8 -23 -131 0
9 23 145 0
-9 -23 -145 0
10 23 159 0
-10 -23 -159 0
11 23 173 0
-11 -23 -173 0
1 24 34 0
-1 -24 -34 0
2 24 48 0
-2 -24 -48 0
3 24 62 0
-3 -24 -62 0
4 24 76 0
-4 -24 -76 0
5 24 90 0
-5 -24 -90 0
6 24 104 0
-6 -24 -104 0
7 24 118 0
-7 -24 -118 0
8 24 132 0
-8 -24 -132 0
9 24 146 0
-9 -24 -146 0
10 24 160 0
-10 -24 -160 0
11 24 174 0
-11 -24 -174 0
1 25 35 0
-1 -25 -35 0
2 25 49 0
-2 -25 -49 0
3 25 63 0
-3 -25 -63 0
4 25 77 0
-4 -25 -77 0
5 25 91 0
-5 -25 -91 0
6 25 105 0
-6 -25 -105 0
7 25 119 0
-7 -25 -119 0
8 25 133 0
-8 -25 -133 0
9 25 147 0
-9 -25 -147 0
10 25 161 0
-10 -25 -161 0
11 25 175 0
-11 -25 -175 0
1 26 36 0
-1 -26 -36 0
2 26 50 0
-2 -26 -50 0
3 26 64 0
-3 -26 -64 0
4 26 78 0
-4 -26 -78 0
5 26 92 0
-5 -26 -92 0
6 26 106 0
-6 -26 -106 0
7 26 120 0
-7 -26 -120 0
8 26 134 0
-8 -26 -134 0
9 26 148 0
-9 -26 -148 0
10 26 162 0
-10 -26 -162 0
1 27 37 0
-1 -27 -37 0
2 27 51 0
-2 -27 -51 0
3 27 65 0
-3 -27 -65 0
4 27 79 0
-4 -27 -79 0
5 27 93 0
-5 -27 -93 0
6 27 107 0
-6 -27 -107 0
7 27 121 0
-7 -27 -121 0
8 27 135 0
-8 -27 -135 0
9 27 149 0
-9 -27 -149 0
10 27 163 0
-10 -27 -163 0
1 28 38 0
-1 -28 -38 0
2 28 52 0
-2 -28 -52 0
3 28 66 0
-3 -28 -66 0
4 28 80 0
-4 -28 -80 0
5 28 94 0
-5 -28 -94 0
6 28 108 0
-6 -28 -108 0
7 28 122 0
-7 -28 -122 0
8 28 136 0
-8 -28 -136 0
9 28 150 0
-9 -28 -150 0
10 28 164 0
-10 -28 -164 0
1 29 39 0
-1 -29 -39 0
2 29 53 0
-2 -29 -53 0
3 29 67 0
-3 -29 -67 0
4 29 81 0
-4 -29 -81 0
5 29 95 0
-5 -29 -95 0
6 29 109 0
-6 -29 -109 0
7 29 123 0
-7 -29 -123 0
8 29 137 0
-8 -29 -137 0
9 29 151 0
-9 -29 -151 0
10 29 165 0
-10 -29 -165 0
1 30 40 0
-1 -30 -40 0
2 30 54 0
-2 -30 -54 0
3 30 68 0
-3 -30 -68 0
4 30 82 0
-4 -30 -82 0
5 30 96 0
-5 -30 -96 0
6 30 110 0
-6 -30 -110 0
7 30 124 0
-7 -30 -124 0
8 30 138 0
-8 -30 -138 0
9 30 152 0
-9 -30 -152 0
10 30 166 0
-10 -30 -166 0
1 31 41 0
-1 -31 -41 0
2 31 55 0
-2 -31 -55 0
3 31 69 0
-3 -31 -69 0
4 31 83 0
-4 -31 -83 0
5 31 97 0
-5 -31 -97 0
6 31 111 0
-6 -31 -111 0
7 31 125 0
-7 -31 -125 0
8 31 139 0
-8 -31 -139 0
9 31 153 0
-9 -31 -153 0
10 31 167 0
-10 -31 -167 0
1 32 42 0
-1 -32 -42 0
2 32 56 0
-2 -32 -56 0
3 32 70 0
-3 -32 -70 0
4 32 84 0
-4 -32 -84 0
5 32 98 0
-5 -32 -98 0
6 32 112 0
-6 -32 -112 0
7 32 126 0
-7 -32 -126 0
8 32 140 0
-8 -32 -140 0
9 32 154 0
-9 -32 -154 0
10 32 168 0
-10 -32 -168 0
1 33 43 0
-1 -33 -43 0
2 33 57 0
-2 -33 -57 0
3 33 71 0
-3 -33 -71 0
4 33 85 0
-4 -33 -85 0
5 33 99 0
-5 -33 -99 0
6 33 113 0
-6 -33 -113 0
7 33 127 0
-7 -33 -127 0
8 33 141 0
-8 -33 -141 0
9 33 155 0
-9 -33 -155 0
10 33 169 0
-10 -33 -169 0
1 34 44 0
-1 -34 -44 0
2 34 58 0
-2 -34 -58 0
3 34 72 0
-3 -34 -72 0
4 34 86 0
-4 -34 -86 0
5 34 100 0
-5 -34 -100 0
6 34 114 0
-6 -34 -114 0
7 34 128 0
-7 -34 -128 0
8 34 142 0
-8 -34 -142 0
9 34 156 0
-9 -34 -156 0
10 34 170 0
-10 -34 -170 0
1 35 45 0
-1 -35 -45 0
2 35 59 0
-2 -35 -59 0
3 35 73 0
-3 -35 -73 0
4 35 87 0
-4 -35 -87 0
5 35 101 0
-5 -35 -101 0
6 35 115 0
-6 -35 -115 0
7 35 129 0
-7 -35 -129 0
8 35 143 0
-8 -35 -143 0
9 35 157 0
-9 -35 -157 0
10 35 171 0
-10 -35 -171 0
1 36 46 0
-1 -36 -46 0
2 36 60 0
-2 -36 -60 0
3 36 74 0
-3 -36 -74 0
4 36 88 0
-4 -36 -88 0
5 36 102 0
-5 -36 -102 0
6 36 116 0
-6 -36 -116 0
7 36 130 0
-7 -36 -130 0
8 36 144 0
-8 -36 -144 0
9 36 158 0
-9 -36 -158 0
10 36 172 0
-10 -36 -172 0
1 37 47 0
-1 -37 -47 0
2 37 61 0
-2 -37 -61 0
3 37 75 0
-3 -37 -75 0
4 37 89 0
-4 -37 -89 0
5 37 103 0
-5 -37 -103 0
6 37 117 0
-6 -37 -117 0
7 37 131 0
-7 -37 -131 0
8 37 145 0
-8 -37 -145 0
9 37 159 0
-9 -37 -159 0
10 37 173 0
-10 -37 -173 0
1 38 48 0
-1 -38 -48 0
2 38 62 0
-2 -38 -62 0
3 38 76 0
-3 -38 -76 0
4 38 90 0
-4 -38 -90 0
5 38 104 0
-5 -38 -104 0
6 38 118 0
-6 -38 -118 0
7 38 132 0
-7 -38 -132 0
8 38 146 0
-8 -38 -146 0
9 38 160 0
-9 -38 -160 0
10 38 174 0
-10 -38 -174 0
1 39 49 0
-1 -39 -49 0
2 39 63 0
-2 -39 -63 0
3 39 77 0
-3 -39 -77 0
4 39 91 0
-4 -39 -91 0
5 39 105 0
-5 -39 -105 0
6 39 119 0
-6 -39 -119 0
7 39 133 0
-7 -39 -133 0
8 39 147 0
-8 -39 -147 0
9 39 161 0
-9 -39 -161 0
10 39 175 0
-10 -39 -175 0
1 40 50 0
-1 -40 -50 0
2 40 64 0
-2 -40 -64 0
3 40 78 0
-3 -40 -78 0
4 40 92 0
-4 -40 -92 0
5 40 106 0
-5 -40 -106 0
6 40 120 0
-6 -40 -120 0
7 40 134 0
-7 -40 -134 0
8 40 148 0
-8 -40 -148 0
9 40 162 0
-9 -40 -162 0
1 41 51 0
-1 -41 -51 0
2 41 65 0
-2 -41 -65 0
3 41 79 0
-3 -41 -79 0
4 41 93 0
-4 -41 -93 0
5 41 107 0
-5 -41 -107 0
6 41 121 0
-6 -41 -121 0
7 41 135 0
-7 -41 -135 0
8 41 149 0
-8 -41 -149 0
9 41 163 0
-9 -41 -163 0
1 42 52 0
-1 -42 -52 0
2 42 66 0
-2 -42 -66 0
3 42 80 0
-3 -42 -80 0
4 42 94 0
-4 -42 -94 0
5 42 108 0
-5 -42 -108 0
6 42 122 0
-6 -42 -122 0
7 42 136 0
-7 -42 -136 0
8 42 150 0
-8 -42 -150 0
9 42 164 0
-9 -42 -164 0
1 43 53 0
-1 -43 -53 0
2 43 67 0
-2 -43 -67 0
3 43 81 0
-3 -43 -81 0
4 43 95 0
-4 -43 -95 0
5 43 109 0
-5 -43 -109 0
6 43 123 0
-6 -43 -123 0
7 43 137 0
-7 -43 -137 0
8 43 151 0
-8 -43 -151 0
9 43 165 0
-9 -43 -165 0
1 44 54 0
-1 -44 -54 0
2 44 68 0
-2 -44 -68 0
3 44 82 0
-3 -44 -82 0
4 44 96 0
-4 -44 -96 0
5 44 110 0
-5 -44 -110 0
6 44 124 0
-6 -44 -124 0
7 44 138 0
-7 -44 -138 0
8 44 152 0
-8 -44 -152 0
9 44 166 0
-9 -44 -166 0
1 45 55 0
-1 -45 -55 0
2 45 69 0
-2 -45 -69 0
3 45 83 0
-3 -45 -83 0
4 45 97 0
-4 -45 -97 0
5 45 111 0
-5 -45 -111 0
6 45 125 0
-6 -45 -125 0
7 45 139 0
-7 -45 -139 0
8 45 153 0
-8 -45 -153 0
9 45 167 0
-9 -45 -167 0
1 46 56 0
-1 -46 -56 0
2 46 70 0
-2 -46 -70 0
3 46 84 0
-3 -46 -84 0
4 46 98 0
-4 -46 -98 0
5 46 112 0
-5 -46 -112 0
6 46 126 0
-6 -46 -126 0
7 46 140 0
-7 -46 -140 0
8 46 154 0
-8 -46 -154 0
9 46 168 0
-9 -46 -168 0
1 47 57 0
-1 -47 -57 0
2 47 71 0
-2 -47 -71 0
3 47 85 0
-3 -47 -85 0
4 47 99 0
-4 -47 -99 0
5 47 113 0
-5 -47 -113 0
6 47 127 0
-6 -47 -127 0
7 47 141 0
-7 -47 -141 0
8 47 155 0
-8 -47 -155 0
9 47 169 0
-9 -47 -169 0
1 48 58 0
-1 -48 -58 0
2 48 72 0
-2 -48 -72 0
3 48 86 0
-3 -48 -86 0
4 48 100 0
-4 -48 -100 0
5 48 114 0
-5 -48 -114 0
6 48 128 0
-6 -48 -128 0
7 48 142 0
-7 -48 -142 0
8 48 156 0
-8 -48 -156 0
9 48 170 0
-9 -48 -170 0
1 49 59 0
-1 -49 -59 0
2 49 73 0
-2 -49 -73 0
3 49 87 0
-3 -49 -87 0
4 49 101 0
-4 -49 -101 0
5 49 115 0
-5 -49 -115 0
6 49 129 0
-6 -49 -129 0
7 49 143 0
-7 -49 -143 0
8 49 157 0
-8 -49 -157 0
9 49 171 0
-9 -49 -171 0
1 50 60 0
-1 -50 -60 0
2 50 74 0
-2 -50 -74 0
3 50 88 0
-3 -50 -88 0
4 50 102 0
-4 -50 -102 0
5 50 116 0
-5 -50 -116 0
6 50 130 0
-6 -50 -130 0
7 50 144 0
-7 -50 -144 0
8 50 158 0
-8 -50 -158 0
9 50 172 0
-9 -50 -172 0
1 51 61 0
-1 -51 -61 0
2 51 75 0
-2 -51 -75 0
3 51 89 0
-3 -51 -89 0
4 51 103 0
-4 -51 -103 0
5 51 117 0
-5 -51 -117 0
6 51 131 0
-6 -51 -131 0
7 51 145 0
-7 -51 -145 0
8 51 159 0
-8 -51 -159 0
9 51 173 0
-9 -51 -173 0
1 52 62 0
-1 -52 -62 0
2 52 76 0
-2 -52 -76 0
3 52 90 0
-3 -52 -90 0
4 52 104 0
-4 -52 -104 0
5 52 118 0
-5 -52 -118 0
6 52 132 0
-6 -52 -132 0
7 52 146 0
-7 -52 -146 0
8 52 160 0
-8 -52 -160 0
9 52 174 0
-9 -52 -174 0
1 53 63 0
-1 -53 -63 0
2 53 77 0
-2 -53 -77 0
3 53 91 0
-3 -53 -91 0
4 53 105 0
-4 -53 -105 0
5 53 119 0
-5 -53 -119 0
6 53 133 0
-6 -53 -133 0
7 53 147 0
-7 -53 -147 0
8 53 161 0
-8 -53 -161 0
9 53 175 0
-9 -53 -175 0
1 54 64 0
-1 -54 -64 0
2 54 78 0
-2 -54 -78 0
3 54 92 0
-3 -54 -92 0
4 54 106 0
-4 -54 -106 0
5 54 120 0
-5 -54 -120 0
6 54 134 0
-6 -54 -134 0
7 54 148 0
-7 -54 -148 0
8 54 162 0
-8 -54 -162 0
1 55 65 0
-1 -55 -65 0
2 55 79 0
-2 -55 -79 0
3 55 93 0
-3 -55 -93 0
4 55 107 0
-4 -55 -107 0
5 55 121 0
-5 -55 -121 0
6 55 135 0
-6 -55 -135 0
7 55 149 0
-7 -55 -149 0
8 55 163 0
-8 -55 -163 0
1 56 66 0
-1 -56 -66 0
2 56 80 0
-2 -56 -80 0
3 56 94 0
-3 -56 -94 0
4 56 108 0
-4 -56 -108 0
5 56 122 0
-5 -56 -122 0
6 56 136 0
-6 -56 -136 0
7 56 150 0
-7 -56 -150 0
8 56 164 0
-8 -56 -164 0
1 57 67 0
-1 -57 -67 0
2 57 81 0
-2 -57 -81 0
3 57 95 0
-3 -57 -95 0
4 57 109 0
-4 -57 -109 0
5 57 123 0
-5 -57 -123 0
6 57 137 0
-6 -57 -137 0
7 57 151 0
-7 -57 -151 0
8 57 165 0
-8 -57 -165 0
1 58 68 0
-1 -58 -68 0
2 58 82 0
-2 -58 -82 0
3 58 96 0
-3 -58 -96 0
4 58 110 0
-4 -58 -110 0
5 58 124 0
-5 -58 -124 0
6 58 138 0
-6 -58 -138 0
7 58 152 0
-7 -58 -152 0
8 58 166 0
-8 -58 -166 0
1 59 69 0
-1 -59 -69 0
2 59 83 0
-2 -59 -83 0
3 59 97 0
-3 -59 -97 0
4 59 111 0
-4 -59 -111 0
5 59 125 0
-5 -59 -125 0
6 59 139 0
-6 -59 -139 0
7 59 153 0
-7 -59 -153 0
8 59 167 0
-8 -59 -167 0
1 60 70 0
-1 -60 -70 0
2 60 84 0
-2 -60 -84 0
3 60 98 0
-3 -60 -98 0
4 60 112 0
-4 -60 -112 0
5 60 126 0
-5 -60 -126 0
6 60 140 0
-6 -60 -140 0
7 60 154 0
-7 -60 -154 0
8 60 168 0
-8 -60 -168 0
1 61 71 0
-1 -61 -71 0
2 61 85 0
-2 -61 -85 0
3 61 99 0
-3 -61 -99 0
4 61 113 0
-4 -61 -113 0
5 61 127 0
-5 -61 -127 0
6 61 141 0
-6 -61 -141 0
7 61 155 0
-7 -61 -155 0
8 61 169 0
-8 -61 -169 0
1 62 72 0
-1 -62 -72 0
2 62 86 0
-2 -62 -86 0
3 62 100 0
-3 -62 -100 0
4 62 114 0
-4 -62 -114 0
5 62 128 0
-5 -62 -128 0
6 62 142 0
-6 -62 -142 0
7 62 156 0
-7 -62 -156 0
8 62 170 0
-8 -62 -170 0
1 63 73 0
-1 -63 -73 0
2 63 87 0
-2 -63 -87 0
3 63 101 0
-3 -63 -101 0
4 63 115 0
-4 -63 -115 0
5 63 129 0
-5 -63 -129 0
6 63 143 0
-6 -63 -143 0
7 63 157 0
-7 -63 -157 0
8 63 171 0
-8 -63 -171 0
1 64 74 0
-1 -64 -74 0
2 64 88 0
-2 -64 -88 0
3 64 102 0
-3 -64 -102 0
4 64 116 0
-4 -64 -116 0
5 64 130 0
-5 -64 -130 0
6 64 144 0
-6 -64 -144 0
7 64 158 0
-7 -64 -158 0
8 64 172 0
-8 -64 -172 0
1 65 75 0
-1 -65 -75 0
2 65 89 0
-2 -65 -89 0
3 65 103 0
-3 -65 -103 0
4 65 117 0
-4 -65 -117 0
5 65 131 0
-5 -65 -131 0
6 65 145 0
-6 -65 -145 0
7 65 159 0
-7 -65 -159 0
8 65 173 0
-8 -65 -173 0
1 66 76 0
-1 -66 -76 0
2 66 90 0
-2 -66 -90 0
3 66 104 0
-3 -66 -104 0
4 66 118 0
-4 -66 -118 0
5 66 132 0
-5 -66 -132 0
6 66 146 0
-6 -66 -146 0
7 66 160 0
-7 -66 -160 0
8 66 174 0
-8 -66 -174 0
1 67 77 0
-1 -67 -77 0
2 67 91 0
-2 -67 -91 0
3 67 105 0
-3 -67 -105 0
4 67 119 0
-4 -67 -119 0
5 67 133 0
-5 -67 -133 0
6 67 147 0
-6 -67 -147 0
7 67 161 0
-7 -67 -161 0
8 67 175 0
-8 -67 -175 0
1 68 78 0
-1 -68 -78 0
2 68 92 0
-2 -68 -92 0
3 68 106 0
-3 -68 -106 0
4 68 120 0
-4 -68 -120 0
5 68 134 0
-5 -68 -134 0
6 68 148 0
-6 -68 -148 0
7 68 162 0
-7 -68 -162 0
1 69 79 0
-1 -69 -79 0
2 69 93 0
-2 -69 -93 0
3 69 107 0
-3 -69 -107 0
4 69 121 0
-4 -69 -121 0
5 69 135 0
-5 -69 -135 0
6 69 149 0
-6 -69 -149 0
7 69 163 0
-7 -69 -163 0
1 70 80 0
-1 -70 -80 0
2 70 94 0
-2 -70 -94 0
3 70 108 0
-3 -70 -108 0
4 70 122 0
-4 -70 -122 0
5 70 136 0
-5 -70 -136 0
6 70 150 0
-6 -70 -150 0
7 70 164 0
-7 -70 -164 0
1 71 81 0
-1 -71 -81 0
2 71 95 0
-2 -71 -95 0
3 71 109 0
-3 -71 -109 0
4 71 123 0
-4 -71 -123 0
5 71 137 0
-5 -71 -137 0
6 71 151 0
-6 -71 -151 0
7 71 165 0
-7 -71 -165 0
1 72 82 0
-1 -72 -82 0
2 72 96 0
-2 -72 -96 0
3 72 110 0
-3 -72 -110 0
4 72 124 0
-4 -72 -124 0
5 72 138 0
-5 -72 -138 0
6 72 152 0
-6 -72 -152 0
7 72 166 0
-7 -72 -166 0
1 73 83 0
-1 -73 -83 0
2 73 97 0
-2 -73 -97 0
3 73 111 0
-3 -73 -111 0
4 73 125 0
-4 -73 -125 0
5 73 139 0
-5 -73 -139 0
6 73 153 0
-6 -73 -153 0
7 73 167 0
-7 -73 -167 0
1 74 84 0
-1 -74 -84 0
2 74 98 0
-2 -74 -98 0
3 74 112 0
-3 -74 -112 0
4 74 126 0
-4 -74 -126 0
5 74 140 0
-5 -74 -140 0
6 74 154 0
-6 -74 -154 0
7 74 168 0
-7 -74 -168 0
1 75 85 0
-1 -75 -85 0
2 75 99 0
-2 -75 -99 0
3 75 113 0
-3 -75 -113 0
4 75 127 0
-4 -75 -127 0
5 75 141 0
-5 -75 -141 0
6 75 155 0
-6 -75 -155 0
7 75 169 0
-7 -75 -169 0
1 76 86 0
-1 -76 -86 0
2 76 100 0
-2 -76 -100 0
3 76 114 0
-3 -76 -114 0
4 76 128 0
-4 -76 -128 0
5 76 142 0
-5 -76 -142 0
6 76 156 0
-6 -76 -156 0
7 76 170 0
-7 -76 -170 0
1 77 87 0
-1 -77 -87 0
2 77 101 0
-2 -77 -101 0
3 77 115 0
-3 -77 -115 0
4 77 129 0
-4 -77 -129 0
5 77 143 0
-5 -77 -143 0
6 77 157 0
-6 -77 -157 0
7 77 171 0
-7 -77 -171 0
1 78 88 0
-1 -78 -88 0
2 78 102 0
-2 -78 -102 0
3 78 116 0
-3 -78 -116 0
4 78 130 0
-4 -78 -130 0
5 78 144 0
-5 -78 -144 0
6 78 158 0
-6 -78 -158 0
7 78 172 0
-7 -78 -172 0
1 79 89 0
-1 -79 -89 0
2 79 103 0
-2 -79 -103 0
3 79 117 0
-3 -79 -117 0
4 79 131 0
-4 -79 -131 0
5 79 145 0
-5 -79 -145 0
6 79 159 0
-6 -79 -159 0
7 79 173 0
-7 -79 -173 0
1 80 90 0
-1 -80 -90 0
2 80 104 0
-2 -80 -104 0
3 80 118 0
-3 -80 -118 0
4 80 132 0
-4 -80 -132 0
5 80 146 0
-5 -80 -146 0
6 80 160 0
-6 -80 -160 0
7 80 174 0
-7 -80 -174 0
1 81 91 0
-1 -81 -91 0
2 81 105 0
-2 -81 -105 0
3 81 119 0
-3 -81 -119 0
4 81 133 0
-4 -81 -133 0
5 81 147 0
-5 -81 -147 0
6 81 161 0
-6 -81 -161 0
7 81 175 0
-7 -81 -175 0
1 82 92 0
-1 -82 -92 0
2 82 106 0
-2 -82 -106 0
3 82 120 0
-3 -82 -120 0
4 82 134 0
-4 -82 -134 0
5 82 148 0
-5 -82 -148 0
6 82 162 0
-6 -82 -162 0
1 83 93 0
-1 -83 -93 0
2 83 107 0
-2 -83 -107 0
3 83 121 0
-3 -83 -121 0
4 83 135 0
-4 -83 -135 0
5 83 149 0
-5 -83 -149 0
6 83 163 0
-6 -83 -163 0
1 84 94 0
-1 -84 -94 0
2 84 108 0
-2 -84 -108 0
3 84 122 0
-3 -84 -122 0
4 84 136 0
-4 -84 -136 0
5 84 150 0
-5 -84 -150 0
6 84 164 0
-6 -84 -164 0
1 85 95 0
-1 -85 -95 0
2 85 109 0
-2 -85 -109 0
3 85 123 0
-3 -85 -123 0
4 85 137 0
-4 -85 -137 0
5 85 151 0
-5 -85 -151 0
6 85 165 0
-6 -85 -165 0
1 86 96 0
-1 -86 -96 0
2 86 110 0
-2 -86 -110 0
3 86 124 0
-3 -86 -124 0
4 86 138 0
-4 -86 -138 0
5 86 152 0
-5 -86 -152 0
6 86 166 0
-6 -86 -166 0
1 87 97 0
-1 -87 -97 0
2 87 111 0
-2 -87 -111 0
3 87 125 0
-3 -87 -125 0
4 87 139 0
-4 -87 -139 0
5 87 153 0
-5 -87 -153 0
6 87 167 0
-6 -87 -167 0
1 88 98 0
-1 -88 -98 0
2 88 112 0
-2 -88 -112 0
3 88 126 0
-3 -88 -126 0
4 88 140 0
-4 -88 -140 0
5 88 154 0
-5 -88 -154 0
6 88 168 0
-6 -88 -168 0
1 89 99 0
-1 -89 -99 0
2 89 113 0
-2 -89 -113 0
3 89 127 0
-3 -89 -127 0
4 89 141 0
-4 -89 -141 0
5 89 155 0
-5 -89 -155 0
6 89 169 0
-6 -89 -169 0
1 90 100 0
-1 -90 -100 0
2 90 114 0
-2 -90 -114 0
3 90 128 0
-3 -90 -128 0
4 90 142 0
-4 -90 -142 0
5 90 156 0
-5 -90 -156 0
6 90 170 0
-6 -90 -170 0
1 91 101 0
-1 -91 -101 0
2 91 115 0
-2 -91 -115 0
3 91 129 0
-3 -91 -129 0
4 91 143 0
-4 -91 -143 0
5 91 157 0
-5 -91 -157 0
6 91 171 0
-6 -91 -171 0
1 92 102 0
-1 -92 -102 0
2 92 116 0
-2 -92 -116 0
3 92 130 0
-3 -92 -130 0
4 92 144 0
-4 -92 -144 0
5 92 158 0
-5 -92 -158 0
6 92 172 0
-6 -92 -172 0
1 93 103 0
-1 -93 -103 0
2 93 117 0
-2 -93 -117 0
3 93 131 0
-3 -93 -131 0
4 93 145 0
-4 -93 -145 0
5 93 159 0
-5 -93 -159 0
6 93 173 0
-6 -93 -173 0
1 94 104 0
-1 -94 -104 0
2 94 118 0
-2 -94 -118 0
3 94 132 0
-3 -94 -132 0
4 94 146 0
-4 -94 -146 0
5 94 160 0
-5 -94 -160 0
6 94 174 0
-6 -94 -174 0
1 95 105 0
-1 -95 -105 0
2 95 119 0
-2 -95 -119 0
3 95 133 0
-3 -95 -133 0
4 95 147 0
-4 -95 -147 0
5 95 161 0
-5 -95 -161 0
6 95 175 0
-6 -95 -175 0
1 96 106 0
-1 -96 -106 0
2 96 120 0
-2 -96 -120 0
3 96 134 0
-3 -96 -134 0
4 96 148 0
-4 -96 -148 0
5 96 162 0
-5 -96 -162 0
1 97 107 0
-1 -97 -107 0
2 97 121 0
-2 -97 -121 0
3 97 135 0
-3 -97 -135 0
4 97 149 0
-4 -97 -149 0
5 97 163 0
-5 -97 -163 0
1 98 108 0
-1 -98 -108 0
2 98 122 0
-2 -98 -122 0
3 98 136 0
-3 -98 -136 0
4 98 150 0
-4 -98 -150 0
5 98 164 0
-5 -98 -164 0
1 99 109 0
-1 -99 -109 0
2 99 123 0
-2 -99 -123 0
3 99 137 0
-3 -99 -137 0
4 99 151 0
-4 -99 -151 0
5 99 165 0
-5 -99 -165 0
1 100 110 0
-1 -100 -110 0
2 100 124 0
-2 -100 -124 0
3 100 138 0
-3 -100 -138 0
4 100 152 0
-4 -100 -152 0
5 100 166 0
-5 -100 -166 0
1 101 111 0
-1 -101 -111 0
2 101 125 0
-2 -101 -125 0
3 101 139 0
-3 -101 -139 0
4 101 153 0
-4 -101 -153 0
5 101 167 0
-5 -101 -167 0
1 102 112 0
-1 -102 -112 0
2 102 126 0
-2 -102 -126 0
3 102 140 0
-3 -102 -140 0
4 102 154 0
-4 -102 -154 0
5 102 168 0
-5 -102 -168 0
1 103 113 0
-1 -103 -113 0
2 103 127 0
-2 -103 -127 0
3 103 141 0
-3 -103 -141 0
4 103 155 0
-4 -103 -155 0
5 103 169 0
-5 -103 -169 0
1 104 114 0
-1 -104 -114 0
2 104 128 0
-2 -104 -128 0
3 104 142 0
-3 -104 -142 0
4 104 156 0
-4 -104 -156 0
5 104 170 0
-5 -104 -170 0
1 105 115 0
-1 -105 -115 0
2 105 129 0
-2 -105 -129 0
3 105 143 0
-3 -105 -143 0
4 105 157 0
-4 -105 -157 0
5 105 171 0
-5 -105 -171 0
1 106 116 0
-1 -106 -116 0
2 106 130 0
-2 -106 -130 0
3 106 144 0
-3 -106 -144 0
4 106 158 0
-4 -106 -158 0
5 106 172 0
-5 -106 -172 0
1 107 117 0
-1 -107 -117 0
2 107 131 0
-2 -107 -131 0
3 107 145 0
-3 -107 -145 0
4 107 159 0
-4 -107 -159 0
5 107 173 0
-5 -107 -173 0
1 108 118 0
-1 -108 -118 0
2 108 132 0
-2 -108 -132 0
3 108 146 0
-3 -108 -146 0
4 108 160 0
-4 -108 -160 0
5 108 174 0
-5 -108 -174 0
1 109 119 0
-1 -109 -119 0
2 109 133 0
-2 -109 -133 0
3 109 147 0
-3 -109 -147 0
4 109 161 0
-4 -109 -161 0
5 109 175 0
-5 -109 -175 0
1 110 120 0
-1 -110 -120 0
2 110 134 0
-2 -110 -134 0
3 110 148 0
-3 -110 -148 0
4 110 162 0
-4 -110 -162 0
1 111 121 0
-1 -111 -121 0
2 111 135 0
-2 -111 -135 0
3 111 149 0
-3 -111 -149 0
4 111 163 0
-4 -111 -163 0
1 112 122 0
-1 -112 -122 0
2 112 136 0
-2 -112 -136 0
3 112 150 0
-3 -112 -150 0
4 112 164 0
-4 -112 -164 0
1 113 123 0
-1 -113 -123 0
2 113 137 0
-2 -113 -137 0
3 113 151 0
-3 -113 -151 0
4 113 165 0
-4 -113 -165 0
1 114 124 0
-1 -114 -124 0
2 114 138 0
-2 -114 -138 0
3 114 152 0
-3 -114 -152 0
4 114 166 0
-4 -114 -166 0
1 115 125 0
-1 -115 -125 0
2 115 139 0
-2 -115 -139 0
3 115 153 0
-3 -115 -153 0
4 115 167 0
-4 -115 -167 0
1 116 126 0
-1 -116 -126 0
2 116 140 0
-2 -116 -140 0
3 116 154 0
-3 -116 -154 0
4 116 168 0
-4 -116 -168 0
1 117 127 0
-1 -117 -127 0
2 117 141 0
-2 -117 -141 0
3 117 155 0
-3 -117 -155 0
4 117 169 0
-4 -117 -169 0
1 118 128 0
-1 -118 -128 0
2 118 142 0
-2 -118 -142 0
3 118 156 0
-3 -118 -156 0
4 118 170 0
-4 -118 -170 0
1 119 129 0
-1 -119 -129 0
2 119 143 0
-2 -119 -143 0
3 119 157 0
-3 -119 -157 0
4 119 171 0
-4 -119 -171 0
1 120 130 0
-1 -120 -130 0
2 120 144 0
-2 -120 -144 0
3 120 158 0
-3 -120 -158 0
4 120 172 0
-4 -120 -172 0
1 121 131 0
-1 -121 -131 0
2 121 145 0
-2 -121 -145 0
3 121 159 0
-3 -121 -159 0
4 121 173 0
-4 -121 -173 0
1 122 132 0
-1 -122 -132 0
2 122 146 0
-2 -122 -146 0
3 122 160 0
-3 -122 -160 0
4 122 174 0
-4 -122 -174 0
1 123 133 0
-1 -123 -133 0
2 123 147 0
-2 -123 -147 0
3 123 161 0
-3 -123 -161 0
4 123 175 0
-4 -123 -175 0
1 124 134 0
-1 -124 -134 0
2 124 148 0
-2 -124 -148 0
3 124 162 0
-3 -124 -162 0
1 125 135 0
-1 -125 -135 0
2 125 149 0
-2 -125 -149 0
3 125 163 0
-3 -125 -163 0
1 126 136 0
-1 -126 -136 0
2 126 150 0
-2 -126 -150 0
3 126 164 0
-3 -126 -164 0
1 127 137 0
-1 -127 -137 0
2 127 151 0
-2 -127 -151 0
3 127 165 0
-3 -127 -165 0
1 128 138 0
-1 -128 -138 0
2 128 152 0
-2 -128 -152 0
3 128 166 0
-3 -128 -166 0
1 129 139 0
-1 -129 -139 0
2 129 153 0
-2 -129 -153 0
3 129 167 0
-3 -129 -167 0
1 130 140 0
-1 -130 -140 0
2 130 154 0
-2 -130 -154 0
3 130 168 0
-3 -130 -168 0
1 131 141 0
-1 -131 -141 0
2 131 155 0
-2 -131 -155 0
3 131 169 0
-3 -131 -169 0
1 132 142 0
-1 -132 -142 0
2 132 156 0
-2 -132 -156 0
3 132 170 0
-3 -132 -170 0
1 133 143 0
-1 -133 -143 0
2 133 157 0
-2 -133 -157 0
3 133 171 0
-3 -133 -171 0
1 134 144 0
-1 -134 -144 0
2 134 158 0
-2 -134 -158 0
3 134 172 0
-3 -134 -172 0
1 135 145 0
-1 -135 -145 0
2 135 159 0
-2 -135 -159 0
3 135 173 0
-3 -135 -173 0
1 136 146 0
-1 -136 -146 0
2 136 160 0
-2 -136 -160 0
3 136 174 0
-3 -136 -174 0
1 137 147 0
-1 -137 -147 0
2 137 161 0
-2 -137 -161 0
3 137 175 0
-3 -137 -175 0
1 138 148 0
-1 -138 -148 0
2 138 162 0
-2 -138 -162 0
1 139 149 0
-1 -139 -149 0
2 139 163 0
-2 -139 -163 0
1 140 150 0
-1 -140 -150 0
2 140 164 0
-2 -140 -164 0
1 141 151 0
-1 -141 -151 0
2 141 165 0
-2 -141 -165 0
1 142 152 0
-1 -142 -152 0
2 142 166 0
-2 -142 -166 0
1 143 153 0
-1 -143 -153 0
2 143 167 0
-2 -143 -167 0
1 144 154 0
-1 -144 -154 0
2 144 168 0
-2 -144 -168 0
1 145 155 0
-1 -145 -155 0
2 145 169 0
-2 -145 -169 0
1 146 156 0
-1 -146 -156 0
2 146 170 0
-2 -146 -170 0
1 147 157 0
-1 -147 -157 0
2 147 171 0
-2 -147 -171 0
1 148 158 0
-1 -148 -158 0
2 148 172 0
-2 -148 -172 0
1 149 159 0
-1 -149 -159 0
2 149 173 0
-2 -149 -173 0
1 150 160 0
-1 -150 -160 0
2 150 174 0
-2 -150 -174 0
1 151 161 0
-1 -151 -161 0
2 151 175 0
-2 -151 -175 0
1 152 162 0
-1 -152 -162 0
1 153 163 0
-1 -153 -163 0
1 154 164 0
-1 -154 -164 0
1 155 165 0
-1 -155 -165 0
1 156 166 0
-1 -156 -166 0
1 157 167 0
-1 -157 -167 0
1 158 168 0
-1 -158 -168 0
1 159 169 0
-1 -159 -169 0
1 160 170 0
-1 -160 -170 0
1 161 171 0
-1 -161 -171 0
1 162 172 0
-1 -162 -172 0
1 163 173 0
-1 -163 -173 0
1 164 174 0
-1 -164 -174 0
1 165 175 0
-1 -165 -175 0
