certificates/rado_a14_c4_N175.drat
1 -172 -175 0
-1 -173 -175 0
1 -175 0
d 1 -172 -175 0
-175 0
11 0
-1 0
-161 0
165 0
171 0
151 0
-15 0
-21 0
25 0
5 0
31 0
-71 0
-155 0
-77 0
-91 0
-97 0
-85 0
-99 0
-105 0
81 0
61 0
145 0
87 0
67 0
101 0
107 0
95 0
75 0
109 0
89 0
115 0
-147 0
-127 0
-79 0
-153 0
-133 0
-7 0
-167 0
-35 0
-3 0
-173 0
-41 0
-29 0
-141 0
-9 0
-43 0
-23 0
-49 0
157 0
137 0
53 0
117 0
0
